NPROCS=0
This instance is clustered!
Gurobi Optimizer version 9.0.0 build v9.0.0rc2 (linux64)
Optimize a model with 18 rows, 82 columns and 162 nonzeros
Model fingerprint: 0xc05d3c5d
Variable types: 1 continuous, 81 integer (81 binary)
Coefficient statistics:
  Matrix range     [1e+00, 1e+00]
  Objective range  [1e+00, 5e+01]
  Bounds range     [1e+00, 1e+00]
  RHS range        [1e+00, 1e+00]
Presolve removed 2 rows and 24 columns
Presolve time: 0.00s
Presolved: 16 rows, 58 columns, 114 nonzeros
Variable types: 1 continuous, 57 integer (57 binary)

Root relaxation: objective 8.005454e+01, 14 iterations, 0.00 seconds

    Nodes    |    Current Node    |     Objective Bounds      |     Work
 Expl Unexpl |  Obj  Depth IntInf | Incumbent    BestBd   Gap | It/Node Time

     0     0  102.48258    0   13          -  102.48258      -     -    0s
H    0     0                     113.8956525  102.48258  10.0%     -    0s
     0     0  104.76040    0   14  113.89565  104.76040  8.02%     -    0s
     0     0  105.15144    0   14  113.89565  105.15144  7.68%     -    0s
     0     0  105.15144    0   14  113.89565  105.15144  7.68%     -    0s
     0     0  107.53345    0   12  113.89565  107.53345  5.59%     -    0s
     0     0  107.78908    0   11  113.89565  107.78908  5.36%     -    0s
     0     0  108.45892    0    8  113.89565  108.45892  4.77%     -    0s
     0     0  109.23240    0   12  113.89565  109.23240  4.09%     -    0s
H    0     0                     111.0497444  109.23240  1.64%     -    0s
     0     0     cutoff    0       111.04974  111.04974  0.00%     -    0s

Cutting planes:
  Gomory: 1
  Implied bound: 1
  Clique: 1
  MIR: 2
  Zero half: 1
  RLT: 1
  Relax-and-lift: 1
  Lazy constraints: 3

Explored 1 nodes (58 simplex iterations) in 0.02 seconds
Thread count was 12 (of 12 available processors)

Solution count 2: 111.05 113.896 

Optimal solution found (tolerance 1.00e-04)
Best objective 1.110497443503e+02, best bound 1.110497443503e+02, gap 0.0000%

User-callback calls 106, time in user-callback 0.00 sec
/projects/academic/josewalt/caigao/RRARP_BD/BendersDecomp/ret/model_outs/n_7_e_9_algo_3.out
 =====>>>>> Solution is written to file in <../ret/model_outs> !!!
===>> All Done!
